set N := A B C;
set L := (A,B) (A,C) (B,A) (B,C) (C,A) (C,B);

param p_l := 
A 3
B 1
C 3;
param q_l := 
A 5
B 5
C 5;
param: g :=
A B 11
A C 8
B A 5
B C 8
C A 4
C B 3;
param: b :=
A B 1
A C 2
B A 2
B C 3
C A 4
C B 1;
param: S :=
A B 1
A C 1
B A 1
B C 1
C A 1
C B 1;
param p_g_lb := 
A 1
B 1
C 1;
param p_g_ub := 
A 5
B 5
C 5;
param q_g_lb := 
A 1
B 1
C 1;
param q_g_ub := 
A 5
B 5
C 5;
param v_lb := 
A 1
B 1
C 1;
param v_ub := 
A 3
B 3
C 3;
